 vasp.5.3.5 31Mar14 (build Apr 08 2014 12:00:03) complex

 VASP binary ID code NSC-NSCPATCH-BUILD02 date 2017.03.15  18:38:24

 INCAR:
 POTCAR:    PAW_PBE C_h 06Feb2004
 POTCAR:    PAW_PBE C_h 06Feb2004
 POTCAR:    PAW_PBE H 15Jun2001
 POTCAR:    PAW_PBE N_h 06Feb2004
 POTCAR:    PAW_PBE O_h 06Feb2004
 POTCAR:    PAW_PBE Ru_pv 28Jan2005

 POTCAR:    PAW_PBE C_h 06Feb2004
   VRHFIN =C: s2p2

   TITEL  = PAW_PBE C_h 06Feb2004
   POMASS =   12.011; ZVAL   =    4.000    mass and valenz
   ENMAX  =  700.000; ENMIN  =  500.000 eV

 POTCAR:    PAW_PBE C_h 06Feb2004
   VRHFIN =C: s2p2

[...]

 POTCAR:    PAW_PBE H 15Jun2001
   VRHFIN =H: ultrasoft test

   TITEL  = PAW_PBE H 15Jun2001
   POMASS =    1.000; ZVAL   =    1.000    mass and valenz
   ENMAX  =  250.000; ENMIN  =  200.000 eV

 POTCAR:    PAW_PBE N_h 06Feb2004
   VRHFIN =N: s2p3

[...]

 POTCAR:    PAW_PBE O_h 06Feb2004
   VRHFIN =O: s2p4

   TITEL  = PAW_PBE O_h 06Feb2004
   POMASS =   16.000; ZVAL   =    6.000    mass and valenz
   ENMAX  =  700.000; ENMIN  =  500.000 eV

 POTCAR:    PAW_PBE Ru_pv 28Jan2005
   VRHFIN =Ru: 4p5s4d

   TITEL  = PAW_PBE Ru_pv 28Jan2005
   POMASS =  101.070; ZVAL   =   14.000    mass and valenz
   ENMAX  =  240.049; ENMIN  =  180.037 eV

 Optimization of the real space projectors (new method)

 maximal supplied QI-value         = 34.20
 optimisation between [QCUT,QGAM] = [ 13.34, 27.02] = [ 49.83,204.46] Ry
 Optimized for a Real-space Cutoff    1.04 Angstroem

   l    n(q)    QCUT    max X(q) W(low)/X(q) W(high)/X(q)  e(spline)
   0      8    13.340   134.812    0.72E-04    0.21E-03    0.27E-06
   0      8    13.340    80.524    0.70E-04    0.21E-03    0.27E-06
   1      8    13.340    79.026    0.21E-03    0.16E-03    0.33E-06
   1      8    13.340    45.188    0.20E-03    0.15E-03    0.33E-06
 Optimization of the real space projectors (new method)

[...]

   l    n(q)    QCUT    max X(q) W(low)/X(q) W(high)/X(q)  e(spline)
   0      8    13.340   280.207    0.16E-03    0.35E-03    0.14E-06
   0      8    13.340   228.978    0.16E-03    0.35E-03    0.14E-06
   1      7    13.340    86.127    0.23E-03    0.25E-04    0.30E-06
   1      7    13.340    65.368    0.22E-03    0.27E-04    0.30E-06
 Optimization of the real space projectors (new method)

 maximal supplied QI-value         = 15.12
 optimisation between [QCUT,QGAM] = [ 13.45, 27.06] = [ 50.69,205.06] Ry
 Optimized for a Real-space Cutoff    1.40 Angstroem

   l    n(q)    QCUT    max X(q) W(low)/X(q) W(high)/X(q)  e(spline)
   1     11    13.455     3.180    0.18E-04    0.25E-04    0.55E-07
   1     11    13.455     5.351    0.12E-03    0.15E-03    0.24E-06
   2     10    13.455    66.565    0.13E-03    0.46E-04    0.26E-06
   2     10    13.455    63.466    0.13E-03    0.47E-04    0.27E-06
   0     11    13.455    85.644    0.47E-04    0.16E-04    0.33E-06
   0     11    13.455    44.119    0.43E-04    0.15E-04    0.30E-06
  PAW_PBE C_h 06Feb2004                 :
  PAW_PBE C_h 06Feb2004                 :
  PAW_PBE H 15Jun2001                   :
  PAW_PBE N_h 06Feb2004                 :
  PAW_PBE O_h 06Feb2004                 :
  PAW_PBE Ru_pv 28Jan2005               :

 POSCAR: C C H N O Ru
  positions in direct lattice
  velocities in cartesian coordinates
 exchange correlation table for  LEXCH =        8
   RHO(1)=    0.500       N(1)  =     2000
   RHO(2)=  100.500       N(2)  =     4000

 ion  position               nearest neighbor table
   1  0.602  0.419  0.606-  51 1.37  10 1.40  14 1.47
   2  0.438  0.566  0.328-  43 1.09   3 1.39   6 1.39
   3  0.456  0.524  0.381-  38 1.09  49 1.36   2 1.39
   4  0.474  0.615  0.450-  34 1.09  49 1.36   5 1.39
   5  0.456  0.660  0.399-  33 1.09   4 1.39   6 1.40
   6  0.438  0.635  0.337-  32 1.09   2 1.39   5 1.40
   7  0.523  0.330  0.675-  26 1.09   8 1.39  16 1.40
   8  0.497  0.372  0.626-  31 1.09  51 1.36   7 1.39
   9  0.293  0.477  0.568-  45 1.09  25 1.39  17 1.40
  10  0.631  0.378  0.654-  28 1.09  16 1.39   1 1.40
  11  0.740  0.529  0.535-  41 1.09  15 1.39  12 1.40
  12  0.701  0.566  0.490-  37 1.09  13 1.39  11 1.40
  13  0.633  0.554  0.487-  47 1.09  53 1.36  12 1.39
  14  0.640  0.469  0.567-  53 1.37  15 1.40   1 1.47
  15  0.708  0.480  0.573-  36 1.09  11 1.39  14 1.40
  16  0.591  0.332  0.689-  27 1.09  10 1.39   7 1.40
  17  0.362  0.489  0.564-  50 1.37   9 1.40  21 1.46
  18  0.408  0.622  0.691-  48 1.09  22 1.39  19 1.40
  19  0.476  0.626  0.677-  44 1.09  20 1.39  18 1.40
  20  0.503  0.586  0.627-  42 1.09  52 1.36  19 1.39
  21  0.398  0.538  0.604-  52 1.38  22 1.40  17 1.46
  22  0.369  0.578  0.654-  30 1.09  18 1.39  21 1.40
  23  0.373  0.406  0.482-  39 1.09  50 1.35  24 1.39
  24  0.305  0.392  0.484-  40 1.09  23 1.39  25 1.40
  25  0.264  0.428  0.528-  46 1.09   9 1.39  24 1.40
  26  0.490  0.295  0.701-   7 1.09
  27  0.613  0.300  0.727-  16 1.09
  28  0.684  0.381  0.665-  10 1.09
  29  0.542  0.362  0.461-  54 0.97
  30  0.316  0.573  0.664-  22 1.09
  31  0.444  0.371  0.614-   8 1.09
  32  0.424  0.668  0.296-   6 1.09
  33  0.456  0.713  0.410-   5 1.09
  34  0.488  0.634  0.499-   4 1.09
  35  0.569  0.418  0.415-  54 0.98
  36  0.738  0.450  0.608-  15 1.09
  37  0.723  0.605  0.459-  12 1.09
  38  0.456  0.470  0.375-   3 1.09
  39  0.406  0.379  0.449-  23 1.09
  40  0.284  0.353  0.452-  24 1.09
  41  0.793  0.537  0.539-  11 1.09
  42  0.556  0.588  0.614-  20 1.09
  43  0.424  0.543  0.280-   2 1.09
  44  0.509  0.660  0.704-  19 1.09
  45  0.263  0.506  0.603-   9 1.09
  46  0.211  0.418  0.531-  25 1.09
  47  0.601  0.582  0.453-  13 1.09
  48  0.385  0.653  0.729-  18 1.09
  49  0.474  0.548  0.441-   4 1.36   3 1.36  55 2.12
  50  0.402  0.453  0.521-  23 1.35  17 1.37  55 2.06
  51  0.535  0.416  0.592-   8 1.36   1 1.37  55 2.06
  52  0.465  0.543  0.590-  20 1.36  21 1.38  55 2.01
  53  0.601  0.507  0.524-  13 1.36  14 1.37  55 2.08
  54  0.531  0.406  0.442-  29 0.97  35 0.98  55 2.24
  55  0.501  0.481  0.519-  52 2.01  50 2.06  51 2.06  53 2.08  49 2.12  54 2.24

  LATTYP: Found a simple cubic cell.
 ALAT       =    20.0000000000

  Lattice vectors:

 A1 = (  20.0000000000,   0.0000000000,   0.0000000000)
 A2 = (   0.0000000000,  20.0000000000,   0.0000000000)
 A3 = (   0.0000000000,   0.0000000000,  20.0000000000)

Analysis of symmetry for initial positions (statically):
 Subroutine PRICEL returns:
 Original cell was already a primitive cell.

 Routine SETGRP: Setting up the symmetry group for a
 simple cubic supercell.

 Subroutine GETGRP returns: Found  1 space group operations
 (whereof  1 operations were pure point group operations)
 out of a pool of 48 trial point group operations.

The static configuration has the point symmetry C_1 .

Analysis of symmetry for dynamics (positions and initial velocities):
 Subroutine PRICEL returns:
 Original cell was already a primitive cell.

[...]

The dynamic configuration has the point symmetry C_1 .

Analysis of constrained symmetry for selective dynamics:
 Subroutine PRICEL returns:
 Original cell was already a primitive cell.

 Routine SETGRP: Setting up the symmetry group for a
 simple cubic supercell.

 Subroutine GETGRP returns: Found  1 space group operations
 (whereof  1 operations were pure point group operations)
 out of a pool of 48 trial point group operations.

The constrained configuration has the point symmetry C_1 .

Analysis of magnetic symmetry:
 Subroutine PRICEL returns:
 Original cell was already a primitive cell.

 Subroutine MAGSYM returns: Found  1 space group operations
 (whereof  1 operations were pure point group operations)
 out of a pool of  1 trial space group operations
 (whereof  1 operations were pure point group operations)
 and found also     1 'primitive' translations

The magnetic configuration has the point symmetry C_1 .

 KPOINTS: K-Points

Automatic generation of k-mesh.
Space group operators:
 irot       det(A)        alpha          n_x          n_y          n_z        tau_x        tau_y        tau_z
    1     1.000000     0.000000     1.000000     0.000000     0.000000     0.000000     0.000000     0.000000

 Subroutine IBZKPT returns following result:

 Found      1 irreducible k-points:

 Following reciprocal coordinates:
            Coordinates               Weight
  0.000000  0.000000  0.000000      1.000000

 Following cartesian coordinates:
            Coordinates               Weight
  0.000000  0.000000  0.000000      1.000000

 I would recommend the setting:
   dimension x,y,z NGX =   173 NGY =  173 NGZ =  173
 SYSTEM =  c2_oh2_ruthenium_mol
 POSCAR =  C C H N O Ru

 Startparameter for this run:
   NWRITE =      2    write-flag & timer
   PREC   = accura    normal or accurate (medium, high low for compatibility)
   ISTART =      0    job   : 0-new  1-cont  2-samecut
   ICHARG =      2    charge: 1-file 2-atom 10-const
   ISPIN  =      2    spin polarized calculation?
   LNONCOLLINEAR =      F non collinear calculations
   LSORBIT =      F    spin-orbit coupling
   INIWAV =      1    electr: 0-lowe 1-rand  2-diag
   LASPH  =      F    aspherical Exc in radial PAW
   METAGGA=      F    non-selfconsistent MetaGGA calc.

 Electronic Relaxation 1
   ENCUT  =  700.0 eV  51.45 Ry    7.17 a.u.  43.15 43.15 43.15*2*pi/ulx,y,z
   ENINI  =  700.0     initial cutoff
   ENAUG  =  946.8 eV  augmentation charge cutoff
   NELM   =     60;   NELMIN=  2; NELMDL= -5     # of ELM steps
   EDIFF  = 0.1E-04   stopping-criterion for ELM
   LREAL  =      T    real-space projection
   NLSPLINE    = F    spline interpolate recip. space projectors
   LCOMPAT=      F    compatible to vasp.4.4
   GGA_COMPAT  = T    GGA compatible to vasp.4.4-vasp.4.6
   LMAXPAW     = -100 max onsite density
   LMAXMIX     =    2 max onsite mixed and CHGCAR
   VOSKOWN=      0    Vosko Wilk Nusair interpolation
   ROPT   =   -0.00025  -0.00025  -0.00025  -0.00025
   ROPT   =   -0.00025  -0.00025
 Ionic relaxation
   EDIFFG = -.1E-01   stopping-criterion for IOM
   NSW    =      0    number of steps for IOM
   NBLOCK =      1;   KBLOCK =      1    inner block; outer block
   IBRION =     -1    ionic relax: 0-MD 1-quasi-New 2-CG
   NFREE  =      0    steps in history (QN), initial steepest desc. (CG)
   ISIF   =      2    stress and relaxation
   IWAVPR =     10    prediction:  0-non 1-charg 2-wave 3-comb
   ISYM   =      2    0-nonsym 1-usesym 2-fastsym
   LCORR  =      T    Harris-Foulkes like correction to forces

   POTIM  = 0.5000    time-step for ionic-motion
   TEIN   =    0.0    initial temperature
   TEBEG  =    0.0;   TEEND  =   0.0 temperature during run
   SMASS  =  -3.00    Nose mass-parameter (am)
   estimated Nose-frequenzy (Omega)   =  0.10E-29 period in steps =****** mass=  -0.914E-26a.u.
   SCALEE = 1.0000    scale energy and forces
   NPACO  =    256;   APACO  = 16.0  distance and # of slots for P.C.
   PSTRESS=    0.0 pullay stress

  Mass of Ions in am
   POMASS =  12.01 12.01  1.00 14.00 16.00101.07
  Ionic Valenz
   ZVAL   =   4.50  4.00  1.00  5.00  6.00 14.00
  Atomic Wigner-Seitz radii
  virtual crystal weights
   VCA    =   1.00  1.00  1.00  1.00  1.00  1.00
   NELECT =     166.0000    total number of electrons
[...]
      8     -26.2000      1.00000
      9     -26.1727      1.00000
     10     -23.6096      1.00000
     11     -23.2571      1.00000
     12     -22.6893      1.00000
     13     -22.4644      1.00000
     14     -22.3547      1.00000
     15     -22.2241      1.00000
     16     -22.0293      1.00000
     17     -21.5709      1.00000
     18     -21.1037      1.00000
     19     -20.8263      1.00000
     20     -19.6352      1.00000
     21     -19.3853      1.00000
     22     -18.7650      1.00000
     23     -18.4813      1.00000
     24     -18.2662      1.00000
     25     -18.0775      1.00000
     26     -17.8429      1.00000
     27     -17.6424      1.00000
     28     -17.6161      1.00000
     29     -17.3374      1.00000
     30     -16.9375      1.00000
     31     -16.6907      1.00000
     32     -15.9224      1.00000
     33     -15.7016      1.00000
     34     -15.2749      1.00000
     35     -15.2172      1.00000
     36     -14.8027      1.00000
     37     -14.7534      1.00000
     38     -14.7275      1.00000
     39     -14.4971      1.00000
     40     -14.3589      1.00000
     41     -14.1174      1.00000
     42     -14.0242      1.00000
     43     -13.9948      1.00000
     44     -13.9658      1.00000
     45     -13.8256      1.00000
     46     -13.5772      1.00000
     47     -13.4970      1.00000
     48     -13.3418      1.00000
     49     -13.2454      1.00000
     50     -13.2063      1.00000
     51     -13.0233      1.00000
     52     -12.9177      1.00000
     53     -12.7501      1.00000
     54     -12.7086      1.00000
     55     -12.5902      1.00000
     56     -12.3953      1.00000
     57     -12.2793      1.00000
     58     -12.2444      1.00000
     59     -12.1355      1.00000
     60     -11.9719      1.00000
[...]
    114      -0.1692      0.00000
    115      -0.0640      0.00000
    116       0.0021      0.00000
    117       0.0187      0.00000
    118       0.1012      0.00000
    119       0.1285      0.00000
    120       0.2070      0.00000
    121       0.2918      0.00000
    122       0.3933      0.00000
    123       0.4142      0.00000
    124       0.4680      0.00000
    125       0.5512      0.00000
    126       0.6055      0.00000
    127       0.6387      0.00000
    128       0.7066      0.00000

 soft charge-density along one line, spin component           1
         0         1         2         3         4         5         6         7         8         9
 total charge-density along one line

 soft charge-density along one line, spin component           2
         0         1         2         3         4         5         6         7         8         9
 total charge-density along one line

------------------------ aborting loop because EDIFF is reached ----------------------------------------

  FORCE on cell =-STRESS in cart. coord.  units (eV):
  Direction    XX          YY          ZZ          XY          YZ          ZX
  Alpha Z    12.91688    12.91688    12.91688
  Ewald   11202.08738  5607.39554  6524.48732   366.14494 -1618.31979   931.08294
  Hartree 12558.12108  7817.50725  8790.89603    85.71887 -1462.57378   741.12089
  E(xc)    -688.85589  -691.39407  -692.05320     1.42692    -0.23624     0.69043
  Local  -26131.35973-15829.54192-17739.63621  -430.16508  3075.34753 -1670.57848
  n-local   -27.98730   -28.52877   -32.10468     3.70889    -1.50407    -0.80087
  augment    83.33894    84.14188    82.80248     1.75759    -0.05818     0.12054
  Kinetic  2977.45800  3012.71031  3037.89605   -28.93042     9.42793    -1.71528
  Fock        0.00000     0.00000     0.00000     0.00000     0.00000     0.00000
  Total     -14.28063   -14.79290   -14.79531    -0.33828     2.08340    -0.07983
  in kB      -2.86001    -2.96261    -2.96309    -0.06775     0.41725    -0.01599

 VOLUME and BASIS-vectors are now :
  energy-cutoff  :      700.00
  volume of cell :     8000.00
      direct lattice vectors                 reciprocal lattice vectors
    20.000000000  0.000000000  0.000000000     0.050000000  0.000000000  0.000000000
     0.000000000 20.000000000  0.000000000     0.000000000  0.050000000  0.000000000
     0.000000000  0.000000000 20.000000000     0.000000000  0.000000000  0.050000000

  length of vectors
    20.000000000 20.000000000 20.000000000     0.050000000  0.050000000  0.050000000

 FORCES acting on ions
    electron-ion (+dipol)            ewald-force                    non-local-force                 convergence-correction
   -.253E+03 0.139E+03 -.155E+03   0.260E+03 -.139E+03 0.157E+03   -.626E+01 0.142E+00 -.213E+01   -.231E-04 0.281E-04 -.514E-04
   0.880E+02 -.921E+01 0.333E+03   -.887E+02 0.950E+01 -.335E+03   0.678E+00 -.294E+00 0.189E+01   -.324E-05 -.176E-04 -.494E-04
   0.682E+02 0.801E+02 0.318E+03   -.704E+02 -.823E+02 -.325E+03   0.219E+01 0.209E+01 0.646E+01   0.144E-04 -.382E-04 0.666E-04
   0.408E+01 -.318E+03 0.301E+02   -.436E+01 0.325E+03 -.296E+02   0.309E+00 -.704E+01 -.473E+00   0.504E-05 -.736E-04 0.296E-04
   0.364E+02 -.325E+03 0.105E+03   -.368E+02 0.327E+03 -.106E+03   0.375E+00 -.184E+01 0.668E+00   0.827E-05 0.324E-04 -.181E-04
   0.805E+02 -.208E+03 0.263E+03   -.810E+02 0.209E+03 -.265E+03   0.548E+00 -.115E+01 0.143E+01   -.337E-05 0.516E-04 -.721E-04
   0.764E+02 0.269E+03 -.220E+03   -.774E+02 -.271E+03 0.222E+03   0.921E+00 0.180E+01 -.164E+01   -.208E-04 -.638E-04 0.406E-04
   0.154E+03 0.257E+03 -.165E+03   -.159E+03 -.262E+03 0.169E+03   0.517E+01 0.492E+01 -.370E+01   -.285E-04 0.264E-04 -.277E-04
   0.323E+03 -.350E+02 -.116E+03   -.325E+03 0.348E+02 0.117E+03   0.242E+01 0.211E+00 -.279E+00   0.204E-04 0.256E-04 0.400E-04
   -.262E+03 0.150E+03 -.188E+03   0.265E+03 -.153E+03 0.193E+03   -.329E+01 0.399E+01 -.490E+01   0.653E-04 -.298E-04 0.162E-04
   -.339E+03 -.704E+02 -.425E+00   0.341E+03 0.713E+02 0.765E-01   -.233E+01 -.901E+00 0.319E+00   0.787E-04 0.190E-04 -.207E-05
   -.258E+03 -.193E+03 0.138E+03   0.260E+03 0.195E+03 -.139E+03   -.153E+01 -.141E+01 0.913E+00   0.493E-04 0.546E-04 -.475E-04
   -.181E+03 -.215E+03 0.188E+03   0.185E+03 0.220E+03 -.192E+03   -.326E+01 -.549E+01 0.445E+01   -.549E-04 -.196E-04 -.177E-04
   -.269E+03 0.581E+02 -.879E+02   0.276E+03 -.564E+02 0.880E+02   -.759E+01 -.185E+01 -.149E-01   -.323E-04 0.143E-04 -.427E-04
   -.317E+03 0.593E+02 -.111E+03   0.320E+03 -.589E+02 0.111E+03   -.317E+01 -.667E+00 -.120E+00   0.767E-05 -.333E-04 0.196E-04
   -.122E+03 0.235E+03 -.241E+03   0.122E+03 -.237E+03 0.243E+03   -.368E+00 0.217E+01 -.231E+01   0.170E-04 -.784E-04 0.523E-04
   0.272E+03 -.296E+02 -.103E+03   -.277E+03 0.314E+02 0.106E+03   0.515E+01 -.181E+01 -.269E+01   0.759E-04 0.295E-04 -.819E-05
   0.128E+03 -.218E+03 -.261E+03   -.128E+03 0.220E+03 0.263E+03   0.729E+00 -.133E+01 -.160E+01   -.496E-04 0.571E-04 0.523E-04
   -.739E+02 -.256E+03 -.246E+03   0.741E+02 0.258E+03 0.248E+03   -.287E+00 -.151E+01 -.155E+01   -.193E-04 0.472E-04 0.301E-04
   -.157E+03 -.238E+03 -.196E+03   0.161E+03 0.243E+03 0.201E+03   -.389E+01 -.486E+01 -.420E+01   -.222E-04 -.519E-04 -.530E-04
   0.233E+03 -.965E+02 -.158E+03   -.239E+03 0.974E+02 0.160E+03   0.577E+01 -.937E+00 -.270E+01   0.229E-04 -.292E-04 -.579E-04
   0.265E+03 -.124E+03 -.200E+03   -.267E+03 0.126E+03 0.202E+03   0.132E+01 -.127E+01 -.181E+01   -.304E-04 -.753E-05 -.241E-04
   0.148E+03 0.264E+03 0.193E+03   -.151E+03 -.269E+03 -.197E+03   0.344E+01 0.490E+01 0.412E+01   0.517E-04 0.285E-04 -.658E-05
   0.241E+03 0.223E+03 0.143E+03   -.243E+03 -.224E+03 -.144E+03   0.162E+01 0.118E+01 0.836E+00   -.325E-04 -.564E-04 -.483E-04
   0.337E+03 0.955E+02 0.324E+01   -.339E+03 -.961E+02 -.341E+01   0.197E+01 0.530E+00 0.155E+00   -.547E-04 -.382E-04 0.146E-04
   0.454E+02 0.807E+02 -.637E+02   -.491E+02 -.846E+02 0.667E+02   0.367E+01 0.385E+01 -.292E+01   -.651E-06 -.186E-04 0.123E-04
   -.417E+02 0.698E+02 -.760E+02   0.442E+02 -.735E+02 0.802E+02   -.242E+01 0.365E+01 -.421E+01   0.831E-05 -.269E-04 0.204E-04
   -.100E+03 0.284E+02 -.494E+02   0.106E+03 -.281E+02 0.506E+02   -.592E+01 -.219E+00 -.131E+01   0.112E-04 -.931E-05 0.348E-05
   -.405E+02 0.150E+03 0.164E+02   0.423E+02 -.157E+03 -.131E+02   -.179E+01 0.756E+01 -.334E+01   -.120E-04 0.297E-04 0.105E-05
   0.101E+03 -.225E+02 -.517E+02   -.107E+03 0.221E+02 0.529E+02   0.582E+01 0.409E+00 -.121E+01   -.132E-04 0.599E-05 0.737E-05
   0.806E+02 0.680E+02 -.317E+02   -.865E+02 -.681E+02 0.303E+02   0.594E+01 0.142E+00 0.134E+01   -.233E-05 0.788E-05 -.690E-05
   0.267E+02 -.664E+02 0.814E+02   -.282E+02 0.701E+02 -.858E+02   0.154E+01 -.372E+01 0.448E+01   -.453E-05 0.237E-04 -.319E-04
   0.595E+01 -.110E+03 0.889E+01   -.591E+01 0.116E+03 -.781E+01   -.325E-01 -.588E+01 -.107E+01   0.367E-06 0.265E-04 -.946E-05
   -.141E+02 -.101E+03 -.343E+02   0.156E+02 0.104E+03 0.397E+02   -.154E+01 -.210E+01 -.539E+01   -.281E-05 -.139E-04 0.304E-05
   -.101E+03 0.258E+02 0.116E+03   0.108E+03 -.235E+02 -.121E+03   -.651E+01 -.229E+01 0.485E+01   -.200E-04 0.104E-04 0.191E-04
   -.923E+02 0.383E+02 -.535E+02   0.956E+02 -.415E+02 0.573E+02   -.332E+01 0.322E+01 -.375E+01   0.101E-04 -.522E-05 0.251E-05
   -.661E+02 -.715E+02 0.548E+02   0.686E+02 0.758E+02 -.582E+02   -.246E+01 -.428E+01 0.346E+01   0.184E-04 0.145E-04 -.118E-04
   0.175E+02 0.710E+02 0.885E+02   -.176E+02 -.769E+02 -.893E+02   0.521E-01 0.596E+01 0.732E+00   0.195E-05 -.505E-05 0.107E-04
   0.432E+01 0.904E+02 0.775E+02   -.744E+00 -.934E+02 -.812E+02   -.358E+01 0.300E+01 0.375E+01   0.455E-05 0.258E-05 -.421E-05
   0.603E+02 0.771E+02 0.571E+02   -.626E+02 -.813E+02 -.607E+02   0.229E+01 0.426E+01 0.357E+01   -.162E-04 -.193E-04 -.142E-04
   -.105E+03 -.198E+02 -.441E+01   0.111E+03 0.208E+02 0.489E+01   -.595E+01 -.962E+00 -.459E+00   0.329E-04 0.103E-04 -.287E-05
   -.835E+02 -.645E+02 -.382E+02   0.894E+02 0.648E+02 0.369E+02   -.587E+01 -.263E+00 0.130E+01   -.326E-05 -.995E-05 -.912E-05
   0.286E+02 0.211E+02 0.104E+03   -.302E+02 -.236E+02 -.109E+03   0.153E+01 0.241E+01 0.526E+01   -.465E-05 -.304E-05 -.294E-04
   -.453E+02 -.785E+02 -.699E+02   0.488E+02 0.822E+02 0.730E+02   -.358E+01 -.374E+01 -.304E+01   -.280E-05 0.217E-04 0.178E-04
   0.947E+02 -.331E+02 -.543E+02   -.981E+02 0.362E+02 0.580E+02   0.345E+01 -.312E+01 -.372E+01   -.835E-05 0.364E-05 0.117E-04
   0.105E+03 0.252E+02 -.236E+01   -.111E+03 -.263E+02 0.267E+01   0.591E+01 0.108E+01 -.304E+00   -.307E-04 -.163E-04 0.369E-05
   -.228E+02 -.761E+02 0.741E+02   0.194E+02 0.792E+02 -.779E+02   0.345E+01 -.320E+01 0.381E+01   -.447E-05 -.377E-05 -.410E-05
   0.433E+02 -.659E+02 -.805E+02   -.458E+02 0.693E+02 0.848E+02   0.248E+01 -.343E+01 -.430E+01   -.145E-04 0.230E-04 0.250E-04
   0.314E+02 -.139E+03 0.222E+03   -.267E+02 0.127E+03 -.208E+03   -.474E+01 0.118E+02 -.144E+02   0.181E-04 -.109E-03 0.108E-03
   0.233E+03 0.163E+03 0.625E+02   -.214E+03 -.160E+03 -.640E+02   -.192E+02 -.324E+01 0.158E+01   0.112E-03 0.821E-04 0.181E-04
   -.278E+02 0.236E+03 -.158E+03   0.136E+02 -.223E+03 0.142E+03   0.143E+02 -.128E+02 0.159E+02   -.834E-04 0.986E-04 -.114E-03
   0.402E+02 -.197E+03 -.197E+03   -.329E+02 0.188E+03 0.185E+03   -.739E+01 0.909E+01 0.123E+02   -.233E-04 -.109E-03 -.110E-03
   -.253E+03 -.993E+02 0.711E+02   0.232E+03 0.975E+02 -.737E+02   0.213E+02 0.155E+01 0.276E+01   -.129E-03 -.660E-04 -.128E-04
   -.122E+03 0.404E+03 0.424E+03   0.819E+02 -.387E+03 -.427E+03   0.397E+02 -.172E+02 0.278E+01   -.694E-04 0.146E-03 0.989E-04
   -.666E+02 0.126E+03 0.235E+03   0.648E+02 -.123E+03 -.231E+03   0.197E+01 -.350E+01 -.347E+01   -.319E-04 -.108E-05 -.779E-04
   -.397E+02 0.224E+02 -.615E+01   -.128E-12 0.142E-12 -.853E-13   0.398E+02 -.224E+02 0.615E+01   -.219E-03 -.335E-04 -.240E-03

 POSITION                                       TOTAL-FORCE (eV/Angst)
     12.04547      8.38666     12.11872         0.323780     -0.137893      0.212704
      8.75875     11.31222      6.55140         0.003217     -0.006061      0.005180
      9.11624     10.48468      7.61029         0.000358     -0.068735      0.009240
      9.47459     12.30603      8.99730         0.019746      0.015458      0.053066
      9.11904     13.19266      7.98704         0.007758     -0.000522      0.007710
      8.75715     12.69444      6.73519         0.001389     -0.004934      0.007832
     10.46158      6.59100     13.49490        -0.009013      0.038546     -0.032900
      9.94203      7.43809     12.52376         0.148277     -0.047120      0.113841
      5.86694      9.53439     11.36602         0.007174      0.012524      0.012491
     12.61928      7.55238     13.08448        -0.470882      0.386692     -0.483521
     14.79299     10.57118     10.69264        -0.048461      0.019385     -0.029541
     14.01643     11.32257      9.80881         0.017304     -0.015098      0.021237
     12.65158     11.07272      9.73048         0.026321     -0.015335      0.025560
     12.79043      9.38554     11.34657        -0.241666     -0.177816      0.124957
     14.16878      9.59490     11.46294        -0.073885     -0.222566      0.195452
     11.82695      6.64488     13.78060         0.043418      0.065734     -0.056068
      7.24231      9.77330     11.28348         0.007177     -0.006780     -0.023941
      8.15819     12.44233     13.81164         0.021618     -0.009250     -0.019860
      9.52399     12.52132     13.53212         0.007719      0.011852      0.017097
     10.05904     11.71816     12.53361        -0.001710     -0.022390     -0.034814
      7.96508     10.76003     12.08522         0.023579     -0.006827     -0.026862
      7.38092     11.55121     13.07965        -0.010091     -0.003751     -0.004201
      7.45796      8.11597      9.64469         0.060070      0.002100     -0.002792
      6.09730      7.83470      9.68863        -0.026436     -0.001964      0.009058
      5.28440      8.55710     10.56432         0.021059     -0.011075     -0.016401
      9.79795      5.90212     14.01497        -0.002440     -0.015505      0.011546
     12.26685      5.99367     14.53463         0.057129      0.035831     -0.022785
     13.68484      7.61538     13.29576        -0.017500      0.118018     -0.120293
     10.84507      7.24677      9.22597        -0.020397     -0.020356     -0.074725
      6.31582     11.46138     13.28407        -0.000666      0.006581     -0.001820
      8.88327      7.42377     12.27295         0.041996      0.058958     -0.057003
      8.47853     13.36665      5.92453        -0.004008      0.005337     -0.001255
      9.12855     14.26265      8.19005         0.004440     -0.001116      0.004168
      9.76183     12.67176      9.98145        -0.003743      0.017278     -0.004410
     11.38256      8.36174      8.29610        -0.003993     -0.011136     -0.058075
     14.75349      8.99278     12.15530         0.048635      0.015556     -0.004545
     14.45552     12.09620      9.18096         0.008173      0.002099     -0.004904
      9.11405      9.40258      7.49376        -0.014769     -0.001001     -0.016950
      8.12287      7.57771      8.97051        -0.006647     -0.006704     -0.013496
      5.68876      7.06123      9.04041         0.000813     -0.005472     -0.003549
     15.86530     10.74076     10.77851        -0.004051     -0.017513      0.017956
     11.11794     11.75383     12.28812         0.006113      0.021971      0.004084
      8.48240     10.86572      5.59722        -0.003776     -0.004255      0.006580
     10.17895     13.19691     14.08003         0.001733      0.004664     -0.000791
      5.25320     10.11370     12.05309        -0.003177     -0.001202     -0.002901
      4.21445      8.36275     10.62101        -0.005618     -0.000767     -0.002672
     12.01813     11.63958      9.05085        -0.014192     -0.018447      0.011488
      7.70887     13.05934     14.58823        -0.002947      0.008612      0.006612
      9.48490     10.95884      8.82805        -0.035237      0.018717      0.016395
      8.03610      9.06122     10.42169        -0.127452     -0.033900      0.008591
     10.70414      8.32170     11.83465         0.221921      0.322619     -0.210645
      9.30896     10.85100     11.80824        -0.114637      0.153054      0.154056
     12.02768     10.13012     10.47953        -0.117027     -0.242039      0.191719
     10.61480      8.11252      8.84309         0.017715      0.044112      0.055214
     10.01771      9.61740     10.38685         0.235790     -0.248169      0.027884
    total drift:                                0.006529     -0.003354      0.002722

  FREE ENERGIE OF THE ION-ELECTRON SYSTEM (eV)
  free  energy   TOTEN  =      -376.82342237 eV

  energy  without entropy=     -376.82342237  energy(sigma->0) =     -376.82342237

 writing wavefunctions